1284
0	86	111	267	359	373	443	543	687	773
0	66	204	358	443	505	569	596	608	617
165	177	203	267	359	505	542	608	692	730
0	77	150	232	373	457	533	568	657	665
77	150	423	551	595	687	727	787	849	871
177	203	288	471	595	773	862	963	1040	1135
34	185	228	657	770	787	862	883	963	1062
228	309	735	758	883	961	1017	1068	1135	1188
309	388	455	569	687	849	942	989	999	1188
266	309	372	617	961	1017	1115	1169	1208	1241
